qbf_easy_train/easy_5607_UNSAT.qdimacs
p cnf 31 88
a 19 20 7 0
e 1 2 3 4 5 6 8 9 10 11 12 13 14 15 16 17 18 21 22 23 24 25 26 27 28 29 30 31 0
-4 2 0
-4 -3 0
-2 3 4 0
5 1 0
5 -4 0
-1 4 -5 0
-4 1 -6 0
4 -1 -6 0
-4 -1 6 0
4 1 6 0
-5 6 -7 0
5 -6 -7 0
-5 -6 7 0
5 6 7 0
-9 8 0
-9 -2 0
-8 2 9 0
-10 3 0
-10 -9 0
-3 9 10 0
-7 10 -11 0
7 -10 -11 0
-7 -10 11 0
7 10 11 0
12 -8 0
12 3 0
8 -3 -12 0
3 -12 -13 0
-3 12 -13 0
3 12 13 0
-3 -12 13 0
-14 2 -15 0
14 -2 -15 0
-14 -2 15 0
14 2 15 0
17 -15 0
17 -16 0
15 16 -17 0
-18 -17 0
-18 8 0
17 -8 18 0
-19 18 0
-19 -16 0
-18 16 19 0
13 -19 -20 0
-13 19 -20 0
13 19 20 0
-13 -19 20 0
11 -20 -21 0
-11 20 -21 0
11 20 21 0
-11 -20 21 0
22 3 0
22 2 0
-3 -2 -22 0
-23 -21 0
-23 22 0
21 -22 23 0
14 -24 -25 0
-14 24 -25 0
14 24 25 0
-14 -24 25 0
-25 -18 -26 0
25 18 -26 0
-25 18 26 0
25 -18 26 0
-27 24 0
-27 26 0
-24 -26 27 0
29 -28 0
29 -4 0
28 4 -29 0
27 -29 -30 0
-27 29 -30 0
27 29 30 0
-27 -29 30 0
31 -23 0
31 -30 0
23 30 -31 0
-21 4 24 -6 0
-2 -1 26 0
-27 22 15 -2 -16 -19 6 0
26 5 3 0
9 -17 7 -28 0
-9 31 4 0
10 29 17 5 -14 21 0
18 -13 8 -1 7 0
31 0
