sat_easy_train/easy_5607_UNSAT.dimacs
p cnf 142 481
4 -2 0
4 -3 0
2 3 -4 0
1 -4 -5 0
-1 4 -5 0
1 4 5 0
-1 -4 5 0
-7 5 0
-7 -6 0
-5 6 7 0
8 -4 0
8 -4 0
4 -8 0
-8 -9 -10 0
8 9 -10 0
-8 9 10 0
8 -9 10 0
-11 7 0
-11 10 0
-7 -10 11 0
-12 -13 0
12 -13 0
12 -13 -14 0
-12 13 -14 0
12 13 14 0
-12 -13 14 0
15 16 0
-15 16 0
-17 -14 0
-17 -16 0
14 16 17 0
-18 -11 0
-18 17 0
11 -17 18 0
-19 -14 0
-19 -9 0
14 9 19 0
6 -8 -20 0
-6 8 -20 0
6 8 20 0
-6 -8 20 0
4 -15 -21 0
-4 15 -21 0
4 15 21 0
-4 -15 21 0
23 -4 0
23 22 0
4 -22 -23 0
-24 -15 0
-24 -23 0
15 23 24 0
21 -24 -25 0
-21 24 -25 0
21 24 25 0
-21 -24 25 0
-26 -20 0
-26 25 0
20 -25 26 0
-28 2 0
-28 27 0
-2 -27 28 0
29 6 0
29 28 0
-6 -28 -29 0
-30 29 0
-30 -13 0
-29 13 30 0
-31 -26 0
-31 -30 0
26 30 31 0
-32 -19 0
-32 -31 0
19 31 32 0
18 -32 -33 0
-18 32 -33 0
18 32 33 0
-18 -32 33 0
34 28 0
34 -27 0
-28 27 -34 0
-35 -3 0
-35 27 0
3 -27 35 0
-37 15 0
-37 36 0
-15 -36 37 0
-35 -37 -38 0
35 37 -38 0
-35 37 38 0
35 -37 38 0
39 34 0
39 38 0
-34 -38 -39 0
40 27 0
40 -9 0
-27 9 -40 0
41 39 0
41 -40 0
-39 40 -41 0
-33 41 -42 0
33 -41 -42 0
-33 -41 42 0
33 41 42 0
44 14 0
44 43 0
-14 -43 -44 0
-45 -4 0
-45 23 0
4 -23 45 0
-47 4 0
-47 15 0
-4 -15 47 0
48 46 0
48 47 0
-46 -47 -48 0
-45 48 -49 0
45 -48 -49 0
-45 -48 49 0
45 48 49 0
50 -27 0
50 15 0
27 -15 -50 0
51 49 0
51 -50 0
-49 50 -51 0
10 -51 -52 0
-10 51 -52 0
10 51 52 0
-10 -51 52 0
-16 53 -54 0
16 -53 -54 0
-16 -53 54 0
16 53 54 0
-54 -23 -55 0
54 23 -55 0
-54 23 55 0
54 -23 55 0
-47 53 -56 0
47 -53 -56 0
-47 -53 56 0
47 53 56 0
-56 -3 -57 0
56 3 -57 0
-56 3 57 0
56 -3 57 0
-58 16 0
-58 -57 0
-16 57 58 0
-55 -58 -59 0
55 58 -59 0
-55 58 59 0
55 -58 59 0
60 -52 0
60 -59 0
52 59 -60 0
44 60 -61 0
-44 -60 -61 0
44 -60 61 0
-44 60 61 0
62 27 0
62 -24 0
-27 24 -62 0
64 63 0
64 -53 0
-63 53 -64 0
65 64 0
65 35 0
-64 -35 -65 0
-66 -62 0
-66 -65 0
62 65 66 0
67 -61 0
67 -66 0
61 66 -67 0
68 -8 -69 0
-68 8 -69 0
68 8 69 0
-68 -8 69 0
-24 3 -70 0
24 -3 -70 0
-24 -3 70 0
24 3 70 0
-71 70 0
-71 8 0
-70 -8 71 0
72 69 0
72 71 0
-69 -71 -72 0
73 67 0
73 -72 0
-67 72 -73 0
-43 1 -74 0
43 -1 -74 0
-43 -1 74 0
43 1 74 0
75 -74 0
75 2 0
74 -2 -75 0
-76 38 0
-76 -75 0
-38 75 76 0
77 12 0
77 2 0
-12 -2 -77 0
-78 -46 0
-78 77 0
46 -77 78 0
79 7 0
79 49 0
-7 -49 -79 0
80 47 0
80 -12 0
-47 12 -80 0
79 80 -81 0
-79 -80 -81 0
79 -80 81 0
-79 80 81 0
81 34 -82 0
-81 -34 -82 0
81 -34 82 0
-81 34 82 0
78 82 -83 0
-78 -82 -83 0
78 -82 83 0
-78 82 83 0
-76 83 -84 0
76 -83 -84 0
-76 -83 84 0
76 83 84 0
-85 3 0
-85 -23 0
-3 23 85 0
-84 85 -86 0
84 -85 -86 0
-84 -85 86 0
84 85 86 0
87 -73 0
87 86 0
73 -86 -87 0
-88 42 0
-88 -87 0
-42 87 88 0
-89 -68 0
-89 54 0
68 -54 89 0
90 -28 0
90 77 0
28 -77 -90 0
91 -89 0
91 90 0
89 -90 -91 0
92 -43 0
92 13 0
43 -13 -92 0
-93 -46 0
-93 -92 0
46 92 93 0
-91 93 -94 0
91 -93 -94 0
-91 -93 94 0
91 93 94 0
95 -21 0
95 21 0
96 -94 0
96 95 0
94 -95 -96 0
-98 -38 0
-98 -97 0
38 97 98 0
-36 -47 -99 0
36 47 -99 0
-36 47 99 0
36 -47 99 0
-100 -74 0
-100 7 0
74 -7 100 0
-100 -75 -101 0
100 75 -101 0
-100 75 101 0
100 -75 101 0
-4 3 -102 0
4 -3 -102 0
-4 -3 102 0
4 3 102 0
101 102 -103 0
-101 -102 -103 0
101 -102 103 0
-101 102 103 0
-99 103 -104 0
99 -103 -104 0
-99 -103 104 0
99 103 104 0
105 98 0
105 -104 0
-98 104 -105 0
106 -51 0
106 -9 0
51 9 -106 0
107 106 0
107 -38 0
-106 38 -107 0
108 64 0
108 27 0
-64 -27 -108 0
-109 -107 0
-109 108 0
107 -108 109 0
-110 105 0
-110 -109 0
-105 109 110 0
-111 96 0
-111 -110 0
-96 110 111 0
-88 -111 -112 0
88 111 -112 0
-88 111 112 0
88 -111 112 0
-113 -13 0
-113 -16 0
13 16 113 0
-113 23 -114 0
113 -23 -114 0
-113 -23 114 0
113 23 114 0
-25 -29 -115 0
25 29 -115 0
-25 29 115 0
25 -29 115 0
-116 38 0
-116 46 0
-38 -46 116 0
-117 75 0
-117 -116 0
-75 116 117 0
115 117 -118 0
-115 -117 -118 0
115 -117 118 0
-115 117 118 0
-114 -118 -119 0
114 118 -119 0
-114 118 119 0
114 -118 119 0
120 75 0
120 46 0
-75 -46 -120 0
121 12 0
121 23 0
-12 -23 -121 0
121 -54 -122 0
-121 54 -122 0
121 54 122 0
-121 -54 122 0
122 102 -123 0
-122 -102 -123 0
122 -102 123 0
-122 102 123 0
-124 120 0
-124 123 0
-120 -123 124 0
125 119 0
125 -124 0
-119 124 -125 0
126 -46 0
126 48 0
46 -48 -126 0
-127 53 0
-127 9 0
-53 -9 127 0
-128 -126 0
-128 -127 0
126 127 128 0
-38 -56 -129 0
38 56 -129 0
-38 56 129 0
38 -56 129 0
-28 -102 -130 0
28 102 -130 0
-28 102 130 0
28 -102 130 0
48 -5 -131 0
-48 5 -131 0
48 5 131 0
-48 -5 131 0
-132 -131 0
-132 89 0
131 -89 132 0
-133 22 0
-133 13 0
-22 -13 133 0
-134 133 0
-134 90 0
-133 -90 134 0
-135 -90 0
-135 -9 0
90 9 135 0
-136 134 0
-136 135 0
-134 -135 136 0
-137 132 0
-137 136 0
-132 -136 137 0
-138 130 0
-138 137 0
-130 -137 138 0
-139 129 0
-139 -138 0
-129 138 139 0
-140 -128 0
-140 -139 0
128 139 140 0
-141 -125 0
-141 140 0
125 -140 141 0
-112 -141 -142 0
112 141 -142 0
-112 141 142 0
112 -141 142 0
-106 67 -38 -75 0
139 111 -77 0
-102 -129 0
110 120 0
-134 -55 0
-13 39 0
-103 119 0
-135 21 0
-53 -116 -84 73 -38 0
-113 42 0
-36 -13 0
-92 -58 -50 -77 0
-119 61 -89 140 -74 39 0
76 16 -65 0
47 44 92 84 0
88 -54 0
-46 -57 0
86 48 0
-37 -67 57 0
61 86 -5 90 -115 0
-36 -26 123 -23 0
17 -43 130 -135 44 0
-89 72 -95 0
-111 115 0
138 -106 -67 -90 24 125 0
-120 60 -88 52 0
-15 -65 122 103 134 0
39 -44 37 51 0
-142 -8 -88 0
-71 -98 -5 48 0
123 35 31 122 -128 0
63 12 0
-20 45 -30 -122 -105 0
-128 5 -14 -130 -117 -142 0
-54 67 119 -17 0
-124 9 0
109 -128 -1 123 129 70 0
-4 6 9 0
-52 -3 99 0
31 16 97 -122 0
51 135 -62 -91 0
-119 79 139 102 0
75 -68 0
89 50 -69 -65 -39 -95 0
46 117 -43 -97 28 -130 0
95 74 35 68 136 -45 0
96 -94 0
-132 44 137 0
-139 -75 -70 -110 40 -142 0
-128 127 50 -61 0
-42 -30 41 127 0
96 -33 -16 55 0
69 -20 -128 -103 68 79 0
-79 -54 84 4 0
100 95 30 0
36 -91 81 -50 62 0
-98 -64 -132 0
-125 -120 27 0
134 -128 0
-93 -132 -43 -128 -77 140 0
-130 50 0
42 -140 -53 -110 135 0
-100 136 74 112 95 0
142 0
